!Murata Part Number: LQP01HV0N3B02
!These Parameters are Measured in Series Mode Connection
!       o--[Z]--o
!Port1              Port2
!       o-------o
!
!Freq. Start=50[MHz] Stop=20[GHz], 401[Steps]
# Hz S RI R 50
!Freq.(Hz) S11(Real) S11(Imag) S21(Real) S21(Imag) S12(Real) S12(Imag) S22(Real) S22(Imag)
5.0E7 1.3145386801343174E-4 7.817132525456352E-4 0.9998685461319865 -7.817132525456353E-4 0.9998685461319865 -7.817132525456353E-4 1.3145386801343174E-4 7.817132525456352E-4
5.0754570186123446E7 1.319517687662055E-4 7.931841273180593E-4 0.999868048231234 -7.931841273180594E-4 0.999868048231234 -7.931841273180594E-4 1.319517687662055E-4 7.931841273180593E-4
5.152052789556263E7 1.3245555751365714E-4 8.048224544751903E-4 0.9998675444424864 -8.048224544751903E-4 0.9998675444424864 -8.048224544751903E-4 1.3245555751365714E-4 8.048224544751903E-4
5.229804498202928E7 1.3296527175580698E-4 8.166307733337903E-4 0.9998670347282441 -8.166307733337903E-4 0.9998670347282441 -8.166307733337903E-4 1.3296527175580698E-4 8.166307733337903E-4
5.308729589274893E7 1.3348095343568736E-4 8.286116635810214E-4 0.9998665190465642 -8.286116635810214E-4 0.9998665190465642 -8.286116635810214E-4 1.3348095343568736E-4 8.286116635810214E-4
5.388845770760058E7 1.340026492149614E-4 8.407677456797502E-4 0.9998659973507851 -8.407677456797502E-4 0.9998659973507851 -8.407677456797502E-4 1.340026492149614E-4 8.407677456797502E-4
5.470171017884717E7 1.3453041074461166E-4 8.531016812656128E-4 0.9998654695892554 -8.531016812656127E-4 0.9998654695892554 -8.531016812656127E-4 1.3453041074461166E-4 8.531016812656128E-4
5.5527235771465644E7 1.3506429492968805E-4 8.656161735361922E-4 0.9998649357050703 -8.656161735361922E-4 0.9998649357050703 -8.656161735361922E-4 1.3506429492968805E-4 8.656161735361922E-4
5.6365219704085544E7 1.3560436418712476E-4 8.783139676327248E-4 0.999864395635813 -8.783139676327248E-4 0.999864395635813 -8.783139676327248E-4 1.3560436418712476E-4 8.783139676327248E-4
5.721584999054556E7 1.3615068669565425E-4 8.911978510148086E-4 0.9998638493133044 -8.911978510148086E-4 0.9998638493133044 -8.911978510148086E-4 1.3615068669565425E-4 8.911978510148086E-4
5.807931748207712E7 1.367033366368757E-4 9.042706538286645E-4 0.999863296663363 -9.042706538286645E-4 0.999863296663363 -9.042706538286645E-4 1.367033366368757E-4 9.042706538286645E-4
5.8955815910124585E7 1.3726239442656406E-4 9.175352492695512E-4 0.9998627376055735 -9.175352492695512E-4 0.9998627376055735 -9.175352492695512E-4 1.3726239442656406E-4 9.175352492695512E-4
5.984554192981184E7 1.378279469353419E-4 9.30994553938996E-4 0.9998621720530647 -9.30994553938996E-4 0.9998621720530647 -9.30994553938996E-4 1.378279469353419E-4 9.30994553938996E-4
6.074869516406457E7 1.3840008769787306E-4 9.446515281975586E-4 0.9998615999123022 -9.446515281975587E-4 0.9998615999123022 -9.446515281975587E-4 1.3840008769787306E-4 9.446515281975586E-4
6.166547824839868E7 1.38978917109778E-4 9.585091765138924E-4 0.9998610210828903 -9.585091765138924E-4 0.9998610210828903 -9.585091765138924E-4 1.38978917109778E-4 9.585091765138924E-4
6.2596096876384385E7 1.3956454261151535E-4 9.725705478109144E-4 0.9998604354573886 -9.725705478109144E-4 0.9998604354573886 -9.725705478109144E-4 1.3956454261151535E-4 9.725705478109144E-4
6.354075984579668E7 1.4015707885852043E-4 9.868387358099456E-4 0.9998598429211414 -9.868387358099456E-4 0.9998598429211414 -9.868387358099456E-4 1.4015707885852043E-4 9.868387358099456E-4
6.449967910546205E7 1.407566478769357E-4 0.0010013168793737046 0.9998592433521231 -0.0010013168793737046 0.9998592433521231 -0.0010013168793737046 1.407566478769357E-4 0.0010013168793737046
6.547306980281226E7 1.4136337920432317E-4 0.0010160081628490933 0.9998586366207958 -0.001016008162849093 0.9998586366207958 -0.001016008162849093 1.4136337920432317E-4 0.0010160081628490933
6.646115033215589E7 1.4197741001479173E-4 0.0010309158164107245 0.999858022589985 -0.0010309158164107245 0.999858022589985 -0.0010309158164107245 1.4197741001479173E-4 0.0010309158164107245
6.746414238367817E7 1.4259888522802906E-4 0.0010460431164061857 0.9998574011147721 -0.0010460431164061854 0.9998574011147721 -0.0010460431164061854 1.4259888522802906E-4 0.0010460431164061857
6.848227099318038E7 1.4322795760177167E-4 0.0010613933857040255 0.9998567720423983 -0.0010613933857040252 0.9998567720423983 -0.0010613933857040252 1.4322795760177167E-4 0.0010613933857040255
6.951576459256999E7 1.4386478780730475E-4 0.0010769699940455211 0.9998561352121926 -0.0010769699940455211 0.9998561352121926 -0.0010769699940455211 1.4386478780730475E-4 0.0010769699940455211
7.056485506111258E7 1.4450954448762474E-4 0.0010927763584012323 0.9998554904555123 -0.0010927763584012325 0.9998554904555123 -0.0010927763584012325 1.4450954448762474E-4 0.0010927763584012323
7.162977777745734E7 1.4516240429795197E-4 0.0011088159433334222 0.9998548375957019 -0.001108815943333422 0.9998548375957019 -0.001108815943333422 1.4516240429795197E-4 0.0011088159433334222
7.271077167244768E7 1.4582355192832547E-4 0.0011250922613653843 0.9998541764480717 -0.0011250922613653845 0.9998541764480717 -0.0011250922613653845 1.4582355192832547E-4 0.0011250922613653843
7.380807928272885E7 1.4649318010805763E-4 0.0011416088733587615 0.999853506819892 -0.0011416088733587615 0.999853506819892 -0.0011416088733587615 1.4649318010805763E-4 0.0011416088733587615
7.492194680516452E7 1.4717148959187402E-4 0.0011583693888999114 0.9998528285104079 -0.0011583693888999114 0.9998528285104079 -0.0011583693888999114 1.4717148959187402E-4 0.0011583693888999114
7.60526241520746E7 1.478586891275996E-4 0.001175377466696405 0.9998521413108724 -0.001175377466696405 0.9998521413108724 -0.001175377466696405 1.478586891275996E-4 0.001175377466696405
7.720036500730675E7 1.4855499540530008E-4 0.0011926368149847123 0.9998514450045948 -0.0011926368149847123 0.9998514450045948 -0.0011926368149847123 1.4855499540530008E-4 0.0011926368149847123
7.836542688315398E7 1.492606329878199E-4 0.0012101511919501602 0.9998507393670122 -0.0012101511919501602 0.9998507393670122 -0.0012101511919501602 1.492606329878199E-4 0.0012101511919501602
7.954807117813127E7 1.4997583422269887E-4 0.0012279244061602207 0.9998500241657773 -0.0012279244061602207 0.9998500241657773 -0.0012279244061602207 1.4997583422269887E-4 0.0012279244061602207
8.074856323562416E7 1.5070083913548127E-4 0.0012459603170121914 0.9998492991608645 -0.0012459603170121914 0.9998492991608645 -0.0012459603170121914 1.5070083913548127E-4 0.0012459603170121914
8.196717240342227E7 1.5143589530446295E-4 0.0012642628351963244 0.9998485641046954 -0.0012642628351963244 0.9998485641046954 -0.0012642628351963244 1.5143589530446295E-4 0.0012642628351963244
8.320417209415154E7 1.5218125771695654E-4 0.0012828359231754668 0.9998478187422829 -0.001282835923175467 0.9998478187422829 -0.001282835923175467 1.5218125771695654E-4 0.0012828359231754668
8.445983984661816E7 1.5293718860717772E-4 0.0013016835956822378 0.9998470628113928 -0.0013016835956822378 0.9998470628113928 -0.0013016835956822378 1.5293718860717772E-4 0.0013016835956822378
8.573445738807854E7 1.537039572758889E-4 0.0013208099202348168 0.9998462960427241 -0.0013208099202348168 0.9998462960427241 -0.0013208099202348168 1.537039572758889E-4 0.0013208099202348168
8.702831069744885E7 1.5448183989195602E-4 0.0013402190176723557 0.9998455181601079 -0.0013402190176723557 0.9998455181601079 -0.0013402190176723557 1.5448183989195602E-4 0.0013402190176723557
8.834169006946853E7 1.5527111927600453E-4 0.0013599150627110644 0.9998447288807237 -0.0013599150627110644 0.9998447288807237 -0.0013599150627110644 1.5527111927600453E-4 0.0013599150627110644
8.96748901798321E7 1.5607208466638053E-4 0.0013799022845220035 0.9998439279153338 -0.0013799022845220037 0.9998439279153338 -0.0013799022845220037 1.5607208466638053E-4 0.0013799022845220035
9.1028210151304E7 1.5688503146764758E-4 0.0014001849673316192 0.9998431149685324 -0.0014001849673316192 0.9998431149685324 -0.0014001849673316192 1.5688503146764758E-4 0.0014001849673316192
9.240195362083109E7 1.5771026098187192E-4 0.0014207674510460467 0.9998422897390182 -0.0014207674510460465 0.9998422897390182 -0.0014207674510460465 1.5771026098187192E-4 0.0014207674510460467
9.379642880766791E7 1.5854808012297285E-4 0.0014416541319002337 0.9998414519198771 -0.0014416541319002335 0.9998414519198771 -0.0014416541319002335 1.5854808012297285E-4 0.0014416541319002337
9.521194858253023E7 1.593988011144342E-4 0.0014628494631329012 0.9998406011988857 -0.0014628494631329012 0.9998406011988857 -0.0014628494631329012 1.593988011144342E-4 0.0014628494631329012
9.664883053779216E7 1.602627411707019E-4 0.001484357955688408 0.9998397372588292 -0.0014843579556884077 0.9998397372588292 -0.0014843579556884077 1.602627411707019E-4 0.001484357955688408
9.810739705874248E7 1.6114022216261173E-4 0.0015061841789465458 0.9998388597778375 -0.0015061841789465458 0.9998388597778375 -0.0015061841789465458 1.6114022216261173E-4 0.0015061841789465458
9.958797539591652E7 1.6203157026721977E-4 0.0015283327614813364 0.9998379684297329 -0.0015283327614813364 0.9998379684297329 -0.0015283327614813364 1.6203157026721977E-4 0.0015283327614813364
1.0109089773851961E8 1.6293711560243473E-4 0.0015508083918498834 0.9998370628843977 -0.0015508083918498834 0.9998370628843977 -0.0015508083918498834 1.6293711560243473E-4 0.0015508083918498834
1.0261650128895843E8 1.6385719184687882E-4 0.0015736158194123568 0.999836142808153 -0.0015736158194123568 0.999836142808153 -0.0015736158194123568 1.6385719184687882E-4 0.0015736158194123568
1.0416512833849736E8 1.647921358454362E-4 0.001596759855184178 0.9998352078641547 -0.0015967598551841781 0.9998352078641547 -0.0015967598551841781 1.647921358454362E-4 0.001596759855184178
1.0573712634405641E8 1.6574228720097985E-4 0.0016202453727215138 0.999834257712799 -0.0016202453727215138 0.999834257712799 -0.0016202453727215138 1.6574228720097985E-4 0.0016202453727215138
1.0733284800616828E8 1.667079878528042E-4 0.0016440773090411575 0.9998332920121473 -0.0016440773090411575 0.9998332920121473 -0.0016440773090411575 1.667079878528042E-4 0.0016440773090411575
1.0895265134811176E8 1.6768958164232832E-4 0.0016682606655759214 0.9998323104183576 -0.0016682606655759214 0.9998323104183576 -0.0016682606655759214 1.6768958164232832E-4 0.0016682606655759214
1.1059689979623953E8 1.6868741386667576E-4 0.0016928005091666493 0.9998313125861334 -0.0016928005091666493 0.9998313125861334 -0.0016928005091666493 1.6868741386667576E-4 0.0016928005091666493
1.1226596226151802E8 1.6970183082078193E-4 0.0017177019730919782 0.9998302981691793 -0.0017177019730919777 0.9998302981691793 -0.0017177019730919777 1.6970183082078193E-4 0.0017177019730919782
1.1396021322229806E8 1.7073317932872476E-4 0.0017429702581369753 0.9998292668206713 -0.0017429702581369748 0.9998292668206713 -0.0017429702581369748 1.7073317932872476E-4 0.0017429702581369753
1.1568003280833441E8 1.7178180626502873E-4 0.0017686106337017947 0.9998282181937351 -0.0017686106337017947 0.9998282181937351 -0.0017686106337017947 1.7178180626502873E-4 0.0017686106337017947
1.1742580688607343E8 1.7284805806674046E-4 0.001794628438951493 0.9998271519419335 -0.001794628438951493 0.9998271519419335 -0.001794628438951493 1.7284805806674046E-4 0.001794628438951493
1.1919792714522783E8 1.7393228023713478E-4 0.0018210290840081278 0.9998260677197629 -0.0018210290840081278 0.9998260677197629 -0.0018210290840081278 1.7393228023713478E-4 0.0018210290840081278
1.2099679118665792E8 1.7503481684196694E-4 0.0018478180511863073 0.9998249651831581 -0.001847818051186307 0.9998249651831581 -0.001847818051186307 1.7503481684196694E-4 0.0018478180511863073
1.2282280261157903E8 1.7615600999925214E-4 0.0018750008962732912 0.9998238439900008 -0.0018750008962732912 0.9998238439900008 -0.0018750008962732912 1.7615600999925214E-4 0.0018750008962732912
1.2467637111211549E8 1.7729619936361198E-4 0.0019025832498547853 0.9998227038006364 -0.0019025832498547853 0.9998227038006364 -0.0019025832498547853 1.7729619936361198E-4 0.0019025832498547853
1.265579125632208E8 1.7845572160630482E-4 0.001930570818687533 0.9998215442783936 -0.001930570818687533 0.9998215442783936 -0.001930570818687533 1.7845572160630482E-4 0.001930570818687533
1.284678491159853E8 1.7963490989211616E-4 0.001958969387119786 0.999820365090108 -0.001958969387119786 0.999820365090108 -0.001958969387119786 1.7963490989211616E-4 0.001958969387119786
1.3040660929235186E8 1.808340933543652E-4 0.001987784818560734 0.9998191659066457 -0.0019877848185607338 0.9998191659066457 -0.0019877848185607338 1.808340933543652E-4 0.001987784818560734
1.3237462808126101E8 1.8205359656935126E-4 0.002017023056999918 0.9998179464034307 -0.002017023056999918 0.9998179464034307 -0.002017023056999918 1.8205359656935126E-4 0.002017023056999918
1.3437234703624701E8 1.832937390316409E-4 0.0020466901285776376 0.9998167062609685 -0.0020466901285776376 0.9998167062609685 -0.0020466901285776376 1.832937390316409E-4 0.0020466901285776376
1.364002143745067E8 1.845548346316688E-4 0.0020767921432072968 0.9998154451653682 -0.0020767921432072968 0.9998154451653682 -0.0020767921432072968 1.845548346316688E-4 0.0020767921432072968
1.3845868507746372E8 1.8583719113720652E-4 0.002107335296250648 0.9998141628088629 -0.002107335296250648 0.9998141628088629 -0.002107335296250648 1.8583719113720652E-4 0.002107335296250648
1.405482209928499E8 1.8714110968031509E-4 0.0021383258702467136 0.9998128588903197 -0.0021383258702467136 0.9998128588903197 -0.0021383258702467136 1.8714110968031509E-4 0.0021383258702467136
1.426692909383278E8 1.8846688425148907E-4 0.002169770236695283 0.9998115331157486 -0.002169770236695283 0.9998115331157486 -0.002169770236695283 1.8846688425148907E-4 0.002169770236695283
1.4482237080667645E8 1.898148012027524E-4 0.0022016748578956233 0.9998101851987973 -0.0022016748578956233 0.9998101851987973 -0.0022016748578956233 1.898148012027524E-4 0.0022016748578956233
1.4700794367256513E8 1.9118513876155237E-4 0.0022340462888411298 0.9998088148612386 -0.0022340462888411298 0.9998088148612386 -0.0022340462888411298 1.9118513876155237E-4 0.0022340462888411298
1.492264999009378E8 1.9257816655735336E-4 0.0022668911791704476 0.9998074218334426 -0.0022668911791704476 0.9998074218334426 -0.0022668911791704476 1.9257816655735336E-4 0.0022668911791704476
1.5147853725703382E8 1.9399414516290292E-4 0.0023002162751755814 0.9998060058548371 -0.0023002162751755814 0.9998060058548371 -0.0023002162751755814 1.9399414516290292E-4 0.0023002162751755814
1.5376456101806876E8 1.9543332565219348E-4 0.0023340284218673346 0.9998045666743476 -0.002334028421867334 0.9998045666743476 -0.002334028421867334 1.9543332565219348E-4 0.0023340284218673346
1.5608508408660066E8 1.968959491772102E-4 0.0023683345650984395 0.9998031040508228 -0.0023683345650984395 0.9998031040508228 -0.0023683345650984395 1.968959491772102E-4 0.0023683345650984395
1.5844062710560706E8 1.983822465655841E-4 0.0024031417537444576 0.9998016177534342 -0.0024031417537444576 0.9998016177534342 -0.0024031417537444576 1.983822465655841E-4 0.0024031417537444576
1.6083171857529896E8 1.998924379413334E-4 0.0024384571419426102 0.9998001075620587 -0.0024384571419426107 0.9998001075620587 -0.0024384571419426107 1.998924379413334E-4 0.0024384571419426102
1.632588949716973E8 2.0142673237089057E-4 0.0024742879913883828 0.9997985732676291 -0.0024742879913883828 0.9997985732676291 -0.0024742879913883828 2.0142673237089057E-4 0.0024742879913883828
1.6572270086699936E8 2.0298532753665438E-4 0.002510641673689787 0.9997970146724633 -0.002510641673689787 0.9997970146724633 -0.002510641673689787 2.0298532753665438E-4 0.002510641673689787
1.6822368905176118E8 2.045684094403138E-4 0.0025475256727789095 0.9997954315905596 -0.002547525672778909 0.9997954315905596 -0.002547525672778909 2.045684094403138E-4 0.0025475256727789095
1.7076242065892437E8 2.061761521382069E-4 0.0025849475873802987 0.9997938238478618 -0.0025849475873802987 0.9997938238478618 -0.0025849475873802987 2.061761521382069E-4 0.0025849475873802987
1.7333946528971428E8 2.0780871751097303E-4 0.0026229151335355988 0.9997921912824892 -0.0026229151335355983 0.9997921912824892 -0.0026229151335355983 2.0780871751097303E-4 0.0026229151335355988
1.7595540114143828E8 2.0946625506974484E-4 0.00266143614718365 0.9997905337449302 -0.00266143614718365 0.9997905337449302 -0.00266143614718365 2.0946625506974484E-4 0.00266143614718365
1.786108151372127E8 2.111489018011101E-4 0.0027005185867952 0.9997888510981988 -0.0027005185867952 0.9997888510981988 -0.0027005185867952 2.111489018011101E-4 0.0027005185867952
1.8130630305764765E8 2.1285678205303202E-4 0.002740170536061139 0.999787143217947 -0.002740170536061139 0.999787143217947 -0.002740170536061139 2.1285678205303202E-4 0.002740170536061139
1.840424696745189E8 2.1459000746387947E-4 0.0027804002066330958 0.9997854099925363 -0.002780400206633096 0.9997854099925363 -0.002780400206633096 2.1459000746387947E-4 0.0027804002066330958
1.8681992888645732E8 2.163486769366547E-4 0.002821215940915015 0.9997836513230632 -0.002821215940915015 0.9997836513230632 -0.002821215940915015 2.163486769366547E-4 0.002821215940915015
1.8963930385668582E8 2.18132876660445E-4 0.002862626214904271 0.9997818671233395 -0.0028626262149042707 0.9997818671233395 -0.0028626262149042707 2.18132876660445E-4 0.002862626214904271
1.92501227152835E8 2.1994268018103152E-4 0.002904639641080608 0.9997800573198191 -0.002904639641080608 0.9997800573198191 -0.002904639641080608 2.1994268018103152E-4 0.002904639641080608
1.9540634088886917E8 2.217781485225074E-4 0.002947264971341186 0.9997782218514775 -0.002947264971341186 0.9997782218514775 -0.002947264971341186 2.217781485225074E-4 0.002947264971341186
1.983552968691535E8 2.236393303616403E-4 0.002990511099979768 0.9997763606696383 -0.002990511099979768 0.9997763606696383 -0.002990511099979768 2.236393303616403E-4 0.002990511099979768
2.0134875673469606E8 2.2552626225660148E-4 0.0030343870667080054 0.9997744737377432 -0.0030343870667080054 0.9997744737377432 -0.0030343870667080054 2.2552626225660148E-4 0.0030343870667080054
2.0438739211159652E8 2.2743896893154576E-4 0.003078902059716625 0.9997725610310684 -0.003078902059716625 0.9997725610310684 -0.003078902059716625 2.2743896893154576E-4 0.003078902059716625
2.074718847617352E8 2.2937746361839504E-4 0.00312406541877423 0.9997706225363815 -0.0031240654187742302 0.9997706225363815 -0.0031240654187742302 2.2937746361839504E-4 0.00312406541877423
2.106029267357361E8 2.3134174845700756E-4 0.003169886638361273 0.999768658251543 -0.003169886638361273 0.999768658251543 -0.003169886638361273 2.3134174845700756E-4 0.003169886638361273
2.1378122052823865E8 2.3333181495476283E-4 0.003216375370836696 0.9997666681850453 -0.003216375370836696 0.9997666681850453 -0.003216375370836696 2.3333181495476283E-4 0.003216375370836696
2.1700747923551247E8 2.3534764450640816E-4 0.003263541429634624 0.9997646523554936 -0.003263541429634624 0.9997646523554936 -0.003263541429634624 2.3534764450640816E-4 0.003263541429634624
2.2028242671545094E8 2.3738920897483097E-4 0.003311394792488428 0.9997626107910251 -0.003311394792488428 0.9997626107910251 -0.003311394792488428 2.3738920897483097E-4 0.003311394792488428
2.23606797749979E8 2.3945647133322118E-4 0.003359945604679377 0.9997605435286668 -0.003359945604679376 0.9997605435286668 -0.003359945604679376 2.3945647133322118E-4 0.003359945604679377
2.2698133820991236E8 2.4154938636889082E-4 0.003409204182307105 0.9997584506136309 -0.003409204182307105 0.9997584506136309 -0.003409204182307105 2.4154938636889082E-4 0.003409204182307105
2.3040680522230446E8 2.4366790144880323E-4 0.0034591810155790203 0.9997563320985511 -0.0034591810155790203 0.9997563320985511 -0.0034591810155790203 2.4366790144880323E-4 0.0034591810155790203
2.338839673403185E8 2.4581195734664897E-4 0.00350988677211578 0.9997541880426533 -0.00350988677211578 0.9997541880426533 -0.00350988677211578 2.4581195734664897E-4 0.00350988677211578
2.37413604715664E8 2.479814891310878E-4 0.0035613323002699833 0.9997520185108689 -0.0035613323002699824 0.9997520185108689 -0.0035613323002699824 2.479814891310878E-4 0.0035613323002699833
2.4099650927363476E8 2.501764271145461E-4 0.0036135286324551837 0.9997498235728854 -0.0036135286324551837 0.9997498235728854 -0.0036135286324551837 2.501764271145461E-4 0.0036135286324551837
2.446334848907889E8 2.523966978617343E-4 0.0036664869884823837 0.9997476033021383 -0.0036664869884823837 0.9997476033021383 -0.0036664869884823837 2.523966978617343E-4 0.0036664869884823837
2.4832534757531032E8 2.546422252568234E-4 0.003720218778901237 0.9997453577747433 -0.003720218778901237 0.9997453577747433 -0.003720218778901237 2.546422252568234E-4 0.003720218778901237
2.5207292565009177E8 2.56912931627986E-4 0.0037747356083431827 0.999743087068372 -0.003774735608343182 0.999743087068372 -0.003774735608343182 2.56912931627986E-4 0.0037747356083431827
2.558770599385812E8 2.592087389277887E-4 0.0038300492788638945 0.9997407912610722 -0.0038300492788638945 0.9997407912610722 -0.0038300492788638945 2.592087389277887E-4 0.0038300492788638945
2.5973860395343277E8 2.615295699676894E-4 0.0038861717932824596 0.9997384704300324 -0.0038861717932824596 0.9997384704300324 -0.0038861717932824596 2.615295699676894E-4 0.0038861717932824596
2.6365842408800447E8 2.6387534970468817E-4 0.003943115358514847 0.9997361246502954 -0.003943115358514846 0.9997361246502954 -0.003943115358514846 2.6387534970468817E-4 0.003943115358514847
2.676373998107465E8 2.6624600657795805E-4 0.004000892388899378 0.9997337539934219 -0.004000892388899378 0.9997337539934219 -0.004000892388899378 2.6624600657795805E-4 0.004000892388899378
2.7167642386252224E8 2.686414738930828E-4 0.0040595155095120225 0.999731358526107 -0.0040595155095120225 0.999731358526107 -0.0040595155095120225 2.686414738930828E-4 0.0040595155095120225
2.757764024569081E8 2.7106169125133304E-4 0.004118997559469516 0.9997289383087486 -0.004118997559469517 0.9997289383087486 -0.004118997559469517 2.7106169125133304E-4 0.004118997559469516
2.7993825548351544E8 2.735066060212311E-4 0.004179351595218551 0.9997264933939786 -0.004179351595218551 0.9997264933939786 -0.004179351595218551 2.735066060212311E-4 0.004179351595218551
2.8416291671438086E8 2.759761748494768E-4 0.004240590893809351 0.9997240238251505 -0.004240590893809351 0.9997240238251505 -0.004240590893809351 2.759761748494768E-4 0.004240590893809351
2.884513340134719E8 2.784703652081542E-4 0.004302728956152319 0.999721529634792 -0.004302728956152319 0.999721529634792 -0.004302728956152319 2.784703652081542E-4 0.004302728956152319
2.9280446954935396E8 2.8098915697499587E-4 0.00436577951025656 0.999719010843025 -0.00436577951025656 0.999719010843025 -0.00436577951025656 2.8098915697499587E-4 0.00436577951025656
2.972233000110666E8 2.835325440433477E-4 0.004429756514449344 0.9997164674559567 -0.004429756514449344 0.9997164674559567 -0.004429756514449344 2.835325440433477E-4 0.004429756514449344
3.0170881682725817E8 2.8610053595837465E-4 0.004494674160575877 0.9997138994640418 -0.004494674160575877 0.9997138994640418 -0.004494674160575877 2.8610053595837465E-4 0.004494674160575877
3.0626202638862675E8 2.886931595759493E-4 0.004560546877178934 0.9997113068404241 -0.004560546877178934 0.9997113068404241 -0.004560546877178934 2.886931595759493E-4 0.004560546877178934
3.1088395027371895E8 2.913104607406002E-4 0.004627389332658268 0.9997086895392595 -0.004627389332658268 0.9997086895392595 -0.004627389332658268 2.913104607406002E-4 0.004627389332658268
3.1557562547813565E8 2.9395250597883174E-4 0.004695216438409894 0.999706047494021 -0.004695216438409894 0.999706047494021 -0.004695216438409894 2.9395250597883174E-4 0.004695216438409894
3.203381046471968E8 2.9661938420410584E-4 0.004764043351945676 0.9997033806157958 -0.004764043351945676 0.9997033806157958 -0.004764043351945676 2.9661938420410584E-4 0.004764043351945676
3.251724563121182E8 2.993112084297587E-4 0.00483388547999397 0.9997006887915704 -0.00483388547999397 0.9997006887915704 -0.00483388547999397 2.993112084297587E-4 0.00483388547999397
3.3007976512975127E8 3.0202811748613457E-4 0.004904758481582292 0.999697971882514 -0.004904758481582292 0.999697971882514 -0.004904758481582292 3.0202811748613457E-4 0.004904758481582292
3.350611321259421E8 3.047702777382472E-4 0.004976678271103273 0.9996952297222618 -0.004976678271103273 0.9996952297222618 -0.004976678271103273 3.047702777382472E-4 0.004976678271103273
3.401176749425622E8 3.075378848003407E-4 0.005049661021365568 0.9996924621151996 -0.005049661021365568 0.9996924621151996 -0.005049661021365568 3.075378848003407E-4 0.005049661021365568
3.4525052808826786E8 3.1033116524377895E-4 0.005123723166631467 0.9996896688347562 -0.0051237231666314675 0.9996896688347562 -0.0051237231666314675 3.1033116524377895E-4 0.005123723166631467
3.5046084319304353E8 3.1315037829480157E-4 0.005198881405643451 0.9996868496217052 -0.00519888140564345 0.9996868496217052 -0.00519888140564345 3.1315037829480157E-4 0.005198881405643451
3.5574978926658666E8 3.159958175187871E-4 0.005275152704642012 0.999684004182481 -0.005275152704642012 0.999684004182481 -0.005275152704642012 3.159958175187871E-4 0.005275152704642012
3.61118552960592E8 3.1886781248780465E-4 0.005352554300377501 0.9996811321875123 -0.005352554300377501 0.9996811321875123 -0.005352554300377501 3.1886781248780465E-4 0.005352554300377501
3.665683388349941E8 3.2176673042837997E-4 0.005431103703118845 0.9996782332695716 -0.005431103703118845 0.9996782332695716 -0.005431103703118845 3.2176673042837997E-4 0.005431103703118845
3.721003696282278E8 3.2469297784658047E-4 0.005510818699662389 0.9996753070221535 -0.005510818699662389 0.9996753070221535 -0.005510818699662389 3.2469297784658047E-4 0.005510818699662389
3.777158865315673E8 3.276470021276982E-4 0.005591717356344172 0.9996723529978723 -0.0055917173563441724 0.9996723529978723 -0.0055917173563441724 3.276470021276982E-4 0.005591717356344172
3.834161494676055E8 3.306292931080248E-4 0.005673818022059336 0.999669370706892 -0.005673818022059336 0.999669370706892 -0.005673818022059336 3.306292931080248E-4 0.005673818022059336
3.892024373729356E8 3.3364038461641474E-4 0.005757139331292419 0.9996663596153835 -0.00575713933129242 0.9996663596153835 -0.00575713933129242 3.3364038461641474E-4 0.005757139331292419
3.950760484850994E8 3.366808559835675E-4 0.005841700207162553 0.9996633191440166 -0.005841700207162553 0.9996633191440166 -0.005841700207162553 3.366808559835675E-4 0.005841700207162553
4.010383006338658E8 3.3975133351720046E-4 0.005927519864487722 0.999660248666483 -0.005927519864487723 0.999660248666483 -0.005927519864487723 3.3975133351720046E-4 0.005927519864487722
4.0709053153690434E8 3.4285249194152293E-4 0.0060146178128724056 0.9996571475080585 -0.0060146178128724056 0.9996571475080585 -0.0060146178128724056 3.4285249194152293E-4 0.0060146178128724056
4.1323409909992224E8 3.459850557996884E-4 0.006103013859823028 0.9996540149442001 -0.006103013859823029 0.9996540149442001 -0.006103013859823029 3.459850557996884E-4 0.006103013859823028
4.194703817213299E8 3.491498008181539E-4 0.006192728113895777 0.999650850199182 -0.006192728113895776 0.999650850199182 -0.006192728113895776 3.491498008181539E-4 0.006192728113895777
4.258007786015047E8 3.523475552321462E-4 0.006283780987881424 0.9996476524447678 -0.006283780987881424 0.9996476524447678 -0.006283780987881424 3.523475552321462E-4 0.006283780987881424
4.3222671005672157E8 3.555792010717065E-4 0.006376193202031915 0.9996444207989283 -0.006376193202031915 0.9996444207989283 -0.006376193202031915 3.555792010717065E-4 0.006376193202031915
4.3874961783782214E8 3.5884567540804205E-4 0.006469985787333428 0.999641154324592 -0.0064699857873334295 0.999641154324592 -0.0064699857873334295 3.5884567540804205E-4 0.006469985787333428
4.453709654536917E8 3.6214797156020024E-4 0.006565180088830771 0.9996378520284397 -0.006565180088830771 0.9996378520284397 -0.006565180088830771 3.6214797156020024E-4 0.006565180088830771
4.520922384996192E8 3.65487140262331E-4 0.006661797769007979 0.9996345128597375 -0.006661797769007979 0.9996345128597375 -0.006661797769007979 3.65487140262331E-4 0.006661797769007979
4.589149449906117E8 3.6886429079207846E-4 0.006759860811229859 0.9996311357092077 -0.00675986081122986 0.9996311357092077 -0.00675986081122986 3.6886429079207846E-4 0.006759860811229859
4.658406156997396E8 3.722805920608944E-4 0.006859391523249413 0.9996277194079392 -0.006859391523249413 0.9996277194079392 -0.006859391523249413 3.722805920608944E-4 0.006859391523249413
4.728708045015879E8 3.7573727366732547E-4 0.0069604125407858744 0.9996242627263328 -0.0069604125407858744 0.9996242627263328 -0.0069604125407858744 3.7573727366732547E-4 0.0069604125407858744
4.800070887208901E8 3.792356269145654E-4 0.0070629468311781615 0.9996207643730857 -0.0070629468311781615 0.9996207643730857 -0.0070629468311781615 3.792356269145654E-4 0.0070629468311781615
4.87251069486424E8 3.827770057938089E-4 0.007167017697118434 0.9996172229942063 -0.007167017697118434 0.9996172229942063 -0.007167017697118434 3.827770057938089E-4 0.007167017697118434
4.946043720902484E8 3.863628279351635E-4 0.007272648780470377 0.9996136371720646 -0.007272648780470377 0.9996136371720646 -0.007272648780470377 3.863628279351635E-4 0.007272648780470377
5.0206864635236067E8 3.899945755281106E-4 0.00737986406617686 0.9996100054244718 -0.007379864066176861 0.9996100054244718 -0.007379864066176861 3.899945755281106E-4 0.00737986406617686
5.0964556699085766E8 3.936737962136988E-4 0.007488687886261331 0.9996063262037862 -0.007488687886261331 0.9996063262037862 -0.007488687886261331 3.936737962136988E-4 0.007488687886261331
5.173368339976832E8 3.9740210395087036E-4 0.007599144923927454 0.9996025978960493 -0.007599144923927454 0.9996025978960493 -0.007599144923927454 3.9740210395087036E-4 0.007599144923927454
5.2514417302004623E8 4.0118117985949857E-4 0.007711260217761204 0.9995988188201406 -0.007711260217761204 0.9995988188201406 -0.007711260217761204 4.0118117985949857E-4 0.007711260217761204
5.330693357475939E8 4.050127730429022E-4 0.007825059166039637 0.999594987226957 -0.007825059166039637 0.999594987226957 -0.007825059166039637 4.050127730429022E-4 0.007825059166039637
5.411141003054292E8 4.0889870139276493E-4 0.0079405675311504 0.9995911012986072 -0.0079405675311504 0.9995911012986072 -0.0079405675311504 4.0889870139276493E-4 0.0079405675311504
5.49280271653059E8 4.12840852379553E-4 0.00805781144412593 0.9995871591476202 -0.00805781144412593 0.9995871591476202 -0.00805781144412593 4.12840852379553E-4 0.00805781144412593
5.575696819893626E8 4.1684118383167454E-4 0.008176817409296258 0.9995831588161684 -0.008176817409296258 0.9995831588161684 -0.008176817409296258 4.1684118383167454E-4 0.008176817409296258
5.659841911636728E8 4.209017247067534E-4 0.008297612309064034 0.9995790982752933 -0.008297612309064036 0.9995790982752933 -0.008297612309064036 4.209017247067534E-4 0.008297612309064034
5.745256870930587E8 4.250245758585422E-4 0.00842022340880553 0.9995749754241415 -0.00842022340880553 0.9995749754241415 -0.00842022340880553 4.250245758585422E-4 0.00842022340880553
5.831960861859089E8 4.292119108031014E-4 0.008544678361901004 0.9995707880891966 -0.008544678361901004 0.9995707880891966 -0.008544678361901004 4.292119108031014E-4 0.008544678361901004
5.919973337719042E8 4.334659764880051E-4 0.008671005214897895 0.999566534023512 -0.008671005214897895 0.999566534023512 -0.008671005214897895 4.334659764880051E-4 0.008671005214897895
6.009314045384814E8 4.377890940684391E-4 0.008799232412810122 0.9995622109059317 -0.008799232412810123 0.9995622109059317 -0.008799232412810123 4.377890940684391E-4 0.008799232412810122
6.100003029738818E8 4.4218365969415815E-4 0.008929388804556612 0.9995578163403059 -0.008929388804556612 0.9995578163403059 -0.008929388804556612 4.4218365969415815E-4 0.008929388804556612
6.19206063816889E8 4.466521453113806E-4 0.009061503648542217 0.9995533478546885 -0.009061503648542215 0.9995533478546885 -0.009061503648542215 4.466521453113806E-4 0.009061503648542217
6.285507525133506E8 4.511970994837836E-4 0.009195606618383893 0.9995488029005162 -0.009195606618383893 0.9995488029005162 -0.009195606618383893 4.511970994837836E-4 0.009195606618383893
6.380364656795913E8 4.558211482368676E-4 0.009331727808785089 0.9995441788517632 -0.009331727808785087 0.9995441788517632 -0.009331727808785087 4.558211482368676E-4 0.009331727808785089
6.476653315728192E8 4.605269959300525E-4 0.009469897741561071 0.9995394730040701 -0.009469897741561073 0.9995394730040701 -0.009469897741561073 4.605269959300525E-4 0.009469897741561071
6.574395105686314E8 4.6531742616094695E-4 0.00961014737181793 0.9995346825738392 -0.00961014737181793 0.9995346825738392 -0.00961014737181793 4.6531742616094695E-4 0.00961014737181793
6.67361195645725E8 4.7019530270634856E-4 0.009752508094287814 0.9995298046972939 -0.009752508094287814 0.9995298046972939 -0.009752508094287814 4.7019530270634856E-4 0.009752508094287814
6.774326128779243E8 4.751635705046008E-4 0.009897011749822908 0.9995248364294954 -0.009897011749822908 0.9995248364294954 -0.009897011749822908 4.751635705046008E-4 0.009897011749822908
6.876560219336321E8 4.8022525668405414E-4 0.010043690632050658 0.9995197747433159 -0.010043690632050658 0.9995197747433159 -0.010043690632050658 4.8022525668405414E-4 0.010043690632050658
6.980337165828195E8 4.8538347164245527E-4 0.010192577494192482 0.9995146165283577 -0.01019257749419248 0.9995146165283577 -0.01019257749419248 4.8538347164245527E-4 0.010192577494192482
7.085680252116663E8 4.906414101822088E-4 0.010343705556048351 0.999509358589818 -0.010343705556048353 0.999509358589818 -0.010343705556048353 4.906414101822088E-4 0.010343705556048351
7.192613113449682E8 4.960023527065418E-4 0.010497108511149305 0.9995039976472935 -0.010497108511149303 0.9995039976472935 -0.010497108511149303 4.960023527065418E-4 0.010497108511149305
7.301159741764276E8 5.014696664817324E-4 0.010652820534080145 0.9994985303335182 -0.010652820534080145 0.9994985303335182 -0.010652820534080145 5.014696664817324E-4 0.010652820534080145
7.411344491069478E8 5.070468069706573E-4 0.010810876287974213 0.9994929531930293 -0.010810876287974213 0.9994929531930293 -0.010810876287974213 5.070468069706573E-4 0.010810876287974213
7.523192082910503E8 5.127373192430446E-4 0.010971310932182251 0.999487262680757 -0.01097131093218225 0.999487262680757 -0.01097131093218225 5.127373192430446E-4 0.010971310932182251
7.636727611915388E8 5.185448394679324E-4 0.011134160130117173 0.9994814551605319 -0.011134160130117173 0.9994814551605319 -0.011134160130117173 5.185448394679324E-4 0.011134160130117173
7.751976551425331E8 5.244730964939643E-4 0.011299460057276512 0.999475526903506 -0.011299460057276512 0.999475526903506 -0.011299460057276512 5.244730964939643E-4 0.011299460057276512
7.868964759210002E8 5.305259135232842E-4 0.011467247409444175 0.9994694740864766 -0.011467247409444173 0.9994694740864766 -0.011467247409444173 5.305259135232842E-4 0.011467247409444175
7.987718483269122E8 5.367072098849219E-4 0.011637559411073074 0.9994632927901151 -0.011637559411073074 0.9994632927901151 -0.011637559411073074 5.367072098849219E-4 0.011637559411073074
8.108264367721564E8 5.430210029137028E-4 0.011810433823850065 0.9994569789970865 -0.011810433823850067 0.9994569789970865 -0.011810433823850067 5.430210029137028E-4 0.011810433823850065
8.230629458783358E8 5.494714099408542E-4 0.011985908955444486 0.9994505285900592 -0.011985908955444486 0.9994505285900592 -0.011985908955444486 5.494714099408542E-4 0.011985908955444486
8.354841210835901E8 5.560626504026201E-4 0.01216402366844151 0.9994439373495974 -0.01216402366844151 0.9994439373495974 -0.01216402366844151 5.560626504026201E-4 0.01216402366844151
8.48092749258575E8 5.627990480733362E-4 0.012344817389461311 0.9994372009519266 -0.012344817389461311 0.9994372009519266 -0.012344817389461311 5.627990480733362E-4 0.012344817389461311
8.608916593317347E8 5.696850334295685E-4 0.01252833011846494 0.9994303149665705 -0.012528330118464942 0.9994303149665705 -0.012528330118464942 5.696850334295685E-4 0.01252833011846494
8.738837229240161E8 5.767251461520476E-4 0.012714602438247744 0.999423274853848 -0.012714602438247742 0.999423274853848 -0.012714602438247742 5.767251461520476E-4 0.012714602438247744
8.870718549931567E8 5.839240377722713E-4 0.012903675524120643 0.9994160759622277 -0.012903675524120643 0.9994160759622277 -0.012903675524120643 5.839240377722713E-4 0.012903675524120643
9.004590144876978E8 5.912864744707881E-4 0.013095591153779937 0.9994087135255292 -0.013095591153779937 0.9994087135255292 -0.013095591153779937 5.912864744707881E-4 0.013095591153779937
9.140482050108682E8 5.988173400343006E-4 0.013290391717365575 0.9994011826599659 -0.013290391717365579 0.9994011826599659 -0.013290391717365579 5.988173400343006E-4 0.013290391717365575
9.278424754944855E8 6.065216389788373E-4 0.013488120227707984 0.9993934783610211 -0.013488120227707984 0.9993934783610211 -0.013488120227707984 6.065216389788373E-4 0.013488120227707984
9.418449208830277E8 6.144044998463752E-4 0.013688820330763135 0.9993855955001537 -0.013688820330763135 0.9993855955001537 -0.013688820330763135 6.144044998463752E-4 0.013688820330763135
9.560586828280303E8 6.22471178682388E-4 0.013892536316235478 0.9993775288213176 -0.013892536316235478 0.9993775288213176 -0.013892536316235478 6.22471178682388E-4 0.013892536316235478
9.704869503929601E8 6.307270627018834E-4 0.01409931312838789 0.9993692729372983 -0.01409931312838789 0.9993692729372983 -0.01409931312838789 6.307270627018834E-4 0.01409931312838789
9.85132960768728E8 6.391776741515877E-4 0.014309196377037762 0.9993608223258483 -0.014309196377037762 0.9993608223258483 -0.014309196377037762 6.391776741515877E-4 0.014309196377037762
1.0E9 6.478286743759915E-4 0.014522232348738003 0.9993521713256239 -0.014522232348738003 0.9993521713256239 -0.014522232348738003 6.478286743759915E-4 0.014522232348738003
1.0150914037224686E9 6.566858680950278E-4 0.014738468018141469 0.999343314131905 -0.014738468018141469 0.999343314131905 -0.014738468018141469 6.566858680950278E-4 0.014738468018141469
1.0304105579112525E9 6.657552079011838E-4 0.014957951059547015 0.9993342447920988 -0.014957951059547015 0.9993342447920988 -0.014957951059547015 6.657552079011838E-4 0.014957951059547015
1.0459608996405853E9 6.750427989838772E-4 0.01518072985862523 0.9993249572010161 -0.015180729858625227 0.9993249572010161 -0.015180729858625227 6.750427989838772E-4 0.01518072985862523
1.0617459178549787E9 6.845549040889208E-4 0.015406853524321576 0.999315445095911 -0.015406853524321576 0.999315445095911 -0.015406853524321576 6.845549040889208E-4 0.015406853524321576
1.0777691541520112E9 6.942979487208731E-4 0.015636371900934195 0.9993057020512793 -0.015636371900934195 0.9993057020512793 -0.015636371900934195 6.942979487208731E-4 0.015636371900934195
1.0940342035769434E9 7.04278526596065E-4 0.015869335580363856 0.999295721473404 -0.015869335580363856 0.999295721473404 -0.015869335580363856 7.04278526596065E-4 0.015869335580363856
1.1105447154293125E9 7.145034053539878E-4 0.016105795914532546 0.9992854965946458 -0.016105795914532546 0.9992854965946458 -0.016105795914532546 7.145034053539878E-4 0.016105795914532546
1.127304394081711E9 7.249795325347082E-4 0.016345805027967716 0.9992750204674653 -0.016345805027967716 0.9992750204674653 -0.016345805027967716 7.249795325347082E-4 0.016345805027967716
1.1443169998109112E9 7.357140418298234E-4 0.016589415830548255 0.9992642859581703 -0.016589415830548255 0.9992642859581703 -0.016589415830548255 7.357140418298234E-4 0.016589415830548255
1.1615863496415424E9 7.467142596144086E-4 0.016836682030408626 0.9992532857403856 -0.016836682030408622 0.9992532857403856 -0.016836682030408622 7.467142596144086E-4 0.016836682030408626
1.1791163182024915E9 7.579877117672194E-4 0.0170876581469967 0.9992420122882328 -0.0170876581469967 0.9992420122882328 -0.0170876581469967 7.579877117672194E-4 0.0170876581469967
1.196910838596237E9 7.695421307863259E-4 0.01734239952428151 0.9992304578692135 -0.01734239952428151 0.9992304578692135 -0.01734239952428151 7.695421307863259E-4 0.01734239952428151
1.2149739032812912E9 7.813854632071167E-4 0.017600962344105773 0.9992186145367928 -0.017600962344105773 0.9992186145367928 -0.017600962344105773 7.813854632071167E-4 0.017600962344105773
1.2333095649679737E9 7.935258773295033E-4 0.017863403639679223 0.9992064741226705 -0.017863403639679223 0.9992064741226705 -0.017863403639679223 7.935258773295033E-4 0.017863403639679223
1.2519219375276875E9 8.059717712608974E-4 0.018129781309207272 0.9991940282287393 -0.018129781309207272 0.9991940282287393 -0.018129781309207272 8.059717712608974E-4 0.018129781309207272
1.2708151969159338E9 8.187317812813903E-4 0.01840015412965072 0.9991812682187186 -0.018400154129650716 0.9991812682187186 -0.018400154129650716 8.187317812813903E-4 0.01840015412965072
1.2899935821092408E9 8.318147905372871E-4 0.018674581770610744 0.9991681852094626 -0.018674581770610744 0.9991681852094626 -0.018674581770610744 8.318147905372871E-4 0.018674581770610744
1.3094613960562458E9 8.452299380690073E-4 0.01895312480833482 0.9991547700619308 -0.01895312480833482 0.9991547700619308 -0.01895312480833482 8.452299380690073E-4 0.01895312480833482
1.329223006643118E9 8.589866281790698E-4 0.019235844739837703 0.9991410133718208 -0.019235844739837707 0.9991410133718208 -0.019235844739837707 8.589866281790698E-4 0.019235844739837703
1.3492828476735637E9 8.730945401457327E-4 0.019522803997132958 0.9991269054598544 -0.019522803997132958 0.9991269054598544 -0.019522803997132958 8.730945401457327E-4 0.019522803997132958
1.3696454198636076E9 8.875636382875839E-4 0.019814065961569368 0.9991124363617124 -0.019814065961569368 0.9991124363617124 -0.019814065961569368 8.875636382875839E-4 0.019814065961569368
1.3903152918514004E9 9.024041823842206E-4 0.02010969497826744 0.9990975958176158 -0.02010969497826744 0.9990975958176158 -0.02010969497826744 9.024041823842206E-4 0.02010969497826744
1.4112971012222517E9 9.176267384579372E-4 0.020409756370650914 0.999082373261542 -0.020409756370650914 0.999082373261542 -0.020409756370650914 9.176267384579372E-4 0.020409756370650914
1.4325955555491471E9 9.332421899211674E-4 0.020714316455068365 0.9990667578100788 -0.02071431645506837 0.9990667578100788 -0.02071431645506837 9.332421899211674E-4 0.020714316455068365
1.4542154334489536E9 9.492617490942705E-4 0.021023442555500153 0.9990507382509056 -0.021023442555500153 0.9990507382509056 -0.021023442555500153 9.492617490942705E-4 0.021023442555500153
1.4761615856545765E9 9.656969690981126E-4 0.021337203018346247 0.999034303030902 -0.021337203018346247 0.999034303030902 -0.021337203018346247 9.656969690981126E-4 0.021337203018346247
1.4984389361032903E9 9.825597561257718E-4 0.02165566722729041 0.9990174402438743 -0.02165566722729041 0.9990174402438743 -0.02165566722729041 9.825597561257718E-4 0.02165566722729041
1.5210524830414915E9 9.998623820976296E-4 0.021978905618236646 0.9990001376179022 -0.021978905618236646 0.9990001376179022 -0.021978905618236646 9.998623820976296E-4 0.021978905618236646
1.544007300146135E9 0.0010176174977040587 0.022306989694314248 0.998982382502296 -0.022306989694314248 0.998982382502296 -0.022306989694314248 0.0010176174977040587 0.022306989694314248
1.567308537663079E9 0.0010358381458398771 0.022639992040947403 0.9989641618541603 -0.022639992040947403 0.9989641618541603 -0.022639992040947403 0.0010358381458398771 0.022639992040947403
1.5909614235626256E9 0.0010545377754348183 0.022977986340986634 0.9989454622245653 -0.022977986340986634 0.9989454622245653 -0.022977986340986634 0.0010545377754348183 0.022977986340986634
1.6149712647124827E9 0.0010737302556842571 0.023321047389898358 0.9989262697443158 -0.023321047389898354 0.9989262697443158 -0.023321047389898354 0.0010737302556842571 0.023321047389898358
1.6393434480684454E9 0.0010934298906846338 0.02366925111101072 0.9989065701093153 -0.023669251111010717 0.9989065701093153 -0.023669251111010717 0.0010934298906846338 0.02366925111101072
1.6640834418830307E9 0.001113651434478077 0.02402267457081256 0.9988863485655219 -0.024022674570812565 0.9988863485655219 -0.024022674570812565 0.001113651434478077 0.02402267457081256
1.6891967969323635E9 0.0011344101065110176 0.02438139599430413 0.998865589893489 -0.02438139599430413 0.998865589893489 -0.02438139599430413 0.0011344101065110176 0.02438139599430413
1.7146891477615707E9 0.0011557216075117707 0.02474549478039743 0.9988442783924881 -0.02474549478039743 0.9988442783924881 -0.02474549478039743 0.0011557216075117707 0.02474549478039743
1.7405662139489775E9 0.0011776021357924194 0.025115051517365244 0.9988223978642075 -0.025115051517365244 0.9988223978642075 -0.025115051517365244 0.0011776021357924194 0.025115051517365244
1.7668338013893702E9 0.001200068403980637 0.025490147998337404 0.9987999315960194 -0.0254901479983374 0.9987999315960194 -0.0254901479983374 0.001200068403980637 0.025490147998337404
1.7934978035966423E9 0.0012231376561875277 0.025870867236843953 0.9987768623438124 -0.025870867236843953 0.9987768623438124 -0.025870867236843953 0.0012231376561875277 0.025870867236843953
1.8205642030260801E9 0.0012468276856179965 0.026257293482404596 0.998753172314382 -0.026257293482404596 0.998753172314382 -0.026257293482404596 0.0012468276856179965 0.026257293482404596
1.8480390724166224E9 0.0012711568526306777 0.026649512236164387 0.9987288431473694 -0.026649512236164387 0.9987288431473694 -0.026649512236164387 0.0012711568526306777 0.026649512236164387
1.875928576153358E9 0.00129614410325496 0.027047610266575466 0.998703855896745 -0.027047610266575466 0.998703855896745 -0.027047610266575466 0.00129614410325496 0.027047610266575466
1.9042389716506054E9 0.0013218089881733223 0.027451675625125776 0.9986781910118268 -0.027451675625125776 0.9986781910118268 -0.027451675625125776 0.0013218089881733223 0.027451675625125776
1.9329766107558432E9 0.0013481716821777383 0.027861797662114447 0.9986518283178224 -0.027861797662114447 0.9986518283178224 -0.027861797662114447 0.0013481716821777383 0.027861797662114447
1.96214794117485E9 0.001375253004109668 0.02827806704247515 0.9986247469958903 -0.028278067042475142 0.9986247469958903 -0.028278067042475142 0.001375253004109668 0.02827806704247515
1.9917595079183304E9 0.0014030744372938424 0.028700575761647723 0.9985969255627062 -0.028700575761647723 0.9985969255627062 -0.028700575761647723 0.0014030744372938424 0.028700575761647723
2.0218179547703927E9 0.0014316581504768093 0.02912941716149921 0.998568341849523 -0.02912941716149921 0.998568341849523 -0.02912941716149921 0.0014316581504768093 0.02912941716149921
2.0523300257791686E9 0.0014610270192820032 0.029564685946294664 0.998538972980718 -0.029564685946294664 0.998538972980718 -0.029564685946294664 0.0014610270192820032 0.029564685946294664
2.0833025667699478E9 0.0014912046481939437 0.030006478198718968 0.9985087953518061 -0.030006478198718968 0.9985087953518061 -0.030006478198718968 0.0014912046481939437 0.030006478198718968
2.1147425268811283E9 0.0015222153930849807 0.030454891395949923 0.9984777846069149 -0.030454891395949923 0.9984777846069149 -0.030454891395949923 0.0015222153930849807 0.030454891395949923
2.1466569601233647E9 0.001554084384298925 0.030910024425783427 0.9984459156157011 -0.030910024425783427 0.9984459156157011 -0.030910024425783427 0.001554084384298925 0.030910024425783427
2.179053026962235E9 0.0015868375503067663 0.0313719776028109 0.9984131624496932 -0.03137197760281091 0.9984131624496932 -0.03137197760281091 0.0015868375503067663 0.0313719776028109
2.21193799592479E9 0.001620501641950588 0.031840852684648965 0.9983794983580494 -0.031840852684648965 0.9983794983580494 -0.031840852684648965 0.001620501641950588 0.031840852684648965
2.2453192452303605E9 0.001655104257292773 0.032316752888221445 0.9983448957427072 -0.032316752888221445 0.9983448957427072 -0.032316752888221445 0.001655104257292773 0.032316752888221445
2.27920426444596E9 0.0016906738670884182 0.032799782906092596 0.9983093261329117 -0.032799782906092596 0.9983093261329117 -0.032799782906092596 0.0016906738670884182 0.032799782906092596
2.313600656166688E9 0.0017272398408999564 0.033290048922851104 0.9982727601591002 -0.033290048922851104 0.9982727601591002 -0.033290048922851104 0.0017272398408999564 0.033290048922851104
2.348516137721468E9 0.0017648324738737899 0.03378765863154259 0.9982351675261264 -0.033787658631542594 0.9982351675261264 -0.033787658631542594 0.0017648324738737899 0.03378765863154259
2.383958542904557E9 0.001803483014199807 0.03429272125014938 0.9981965169858001 -0.03429272125014938 0.9981965169858001 -0.03429272125014938 0.001803483014199807 0.03429272125014938
2.4199358237331576E9 0.0018432236912754927 0.03480534753811412 0.9981567763087243 -0.03480534753811412 0.9981567763087243 -0.03480534753811412 0.0018432236912754927 0.03480534753811412
2.456456052231581E9 0.0018840877445973681 0.03532564981290454 0.9981159122554026 -0.03532564981290454 0.9981159122554026 -0.03532564981290454 0.0018840877445973681 0.03532564981290454
2.4935274222423096E9 0.0019261094534033362 0.03585374196661474 0.9980738905465969 -0.03585374196661474 0.9980738905465969 -0.03585374196661474 0.0019261094534033362 0.03585374196661474
2.5311582512644167E9 0.001969324167090526 0.036389739482598854 0.9980306758329096 -0.036389739482598854 0.9980306758329096 -0.036389739482598854 0.001969324167090526 0.036389739482598854
2.5693569823197055E9 0.0020137683364340225 0.03693375945213077 0.9979862316635661 -0.03693375945213077 0.9979862316635661 -0.03693375945213077 0.0020137683364340225 0.03693375945213077
2.6081321858470373E9 0.002059479545632896 0.037485920591084354 0.9979405204543671 -0.037485920591084354 0.9979405204543671 -0.037485920591084354 0.002059479545632896 0.037485920591084354
2.64749256162522E9 0.0021064965452106555 0.03804634325662573 0.9978935034547893 -0.03804634325662573 0.9978935034547893 -0.03804634325662573 0.0021064965452106555 0.03804634325662573
2.687446940724941E9 0.002154859285798303 0.03861514946391031 0.9978451407142016 -0.03861514946391031 0.9978451407142016 -0.03861514946391031 0.002154859285798303 0.03861514946391031
2.7280042874901342E9 0.00220460895282882 0.03919246290277434 0.9977953910471711 -0.03919246290277433 0.9977953910471711 -0.03919246290277433 0.00220460895282882 0.03919246290277434
2.769173701549275E9 0.0022557880021729167 0.03977840895441145 0.9977442119978271 -0.03977840895441145 0.9977442119978271 -0.03977840895441145 0.0022557880021729167 0.03977840895441145
2.810964419856998E9 0.002308440196746515 0.040373114708021796 0.9976915598032534 -0.040373114708021796 0.9976915598032534 -0.040373114708021796 0.002308440196746515 0.040373114708021796
2.8533858187665567E9 0.002362610644121409 0.04097670897742219 0.9976373893558786 -0.04097670897742219 0.9976373893558786 -0.04097670897742219 0.002362610644121409 0.04097670897742219
2.896447416133529E9 0.0024183458351711056 0.04158932231760226 0.9975816541648289 -0.04158932231760226 0.9975816541648289 -0.04158932231760226 0.0024183458351711056 0.04158932231760226
2.9401588734513035E9 0.002475693683784817 0.0422110870412128 0.9975243063162152 -0.042211087041212805 0.9975243063162152 -0.042211087041212805 0.002475693683784817 0.0422110870412128
2.984529998018756E9 0.002534703567683119 0.04284213723496896 0.9974652964323167 -0.042842137234968956 0.9974652964323167 -0.042842137234968956 0.002534703567683119 0.04284213723496896
3.0295707451406775E9 0.0025954263703696595 0.0434826087759516 0.9974045736296302 -0.04348260877595161 0.9974045736296302 -0.04348260877595161 0.0025954263703696595 0.0434826087759516
3.0752912203613753E9 0.002657914524253865 0.04413263934778706 0.9973420854757461 -0.04413263934778706 0.9973420854757461 -0.04413263934778706 0.002657914524253865 0.04413263934778706
3.1217016817320123E9 0.0027222220549804007 0.04479236845668575 0.9972777779450195 -0.04479236845668575 0.9972777779450195 -0.04479236845668575 0.0027222220549804007 0.04479236845668575
3.1688125421121416E9 0.00278840462700167 0.04546193744731722 0.9972115953729982 -0.04546193744731721 0.9972115953729982 -0.04546193744731721 0.00278840462700167 0.04546193744731722
3.216634371505978E9 0.002856519590430408 0.046141489518498724 0.9971434804095695 -0.046141489518498724 0.9971434804095695 -0.046141489518498724 0.002856519590430408 0.046141489518498724
3.265177899433946E9 0.002926626029210002 0.04683116973867293 0.99707337397079 -0.04683116973867293 0.99707337397079 -0.04683116973867293 0.002926626029210002 0.04683116973867293
3.314454017339986E9 0.0029987848106407355 0.0475311250611476 0.9970012151893592 -0.0475311250611476 0.9970012151893592 -0.0475311250611476 0.0029987848106407355 0.0475311250611476
3.364473781035224E9 0.003073058636300894 0.048241504339070464 0.9969269413636991 -0.048241504339070464 0.9969269413636991 -0.048241504339070464 0.003073058636300894 0.048241504339070464
3.4152484131784873E9 0.0031495120944020783 0.048962458340108685 0.9968504879055978 -0.048962458340108685 0.9968504879055978 -0.048962458340108685 0.0031495120944020783 0.048962458340108685
3.4667893057942863E9 0.003228211713618834 0.04969413976080269 0.9967717882863811 -0.04969413976080269 0.9967717882863811 -0.04969413976080269 0.003228211713618834 0.04969413976080269
3.5191080228287644E9 0.003309226018433095 0.050436703240560536 0.9966907739815669 -0.050436703240560536 0.9966907739815669 -0.050436703240560536 0.003309226018433095 0.050436703240560536
3.5722163027442546E9 0.0033926255860346178 0.05119030537525879 0.9966073744139654 -0.05119030537525879 0.9966073744139654 -0.05119030537525879 0.0033926255860346178 0.05119030537525879
3.626126061152952E9 0.003478483104819016 0.051955104730412614 0.9965215168951809 -0.051955104730412614 0.9965215168951809 -0.051955104730412614 0.003478483104819016 0.051955104730412614
3.680849393490379E9 0.003566873434525639 0.05273126185387754 0.9964331265654743 -0.05273126185387754 0.9964331265654743 -0.05273126185387754 0.003566873434525639 0.05273126185387754
3.736398577729146E9 0.00365787366805786 0.053518939288040975 0.9963421263319423 -0.053518939288040975 0.9963421263319423 -0.053518939288040975 0.00365787366805786 0.053518939288040975
3.7927860771337166E9 0.0037515631950290566 0.05431830158146252 0.9962484368049709 -0.05431830158146252 0.9962484368049709 -0.05431830158146252 0.0037515631950290566 0.05431830158146252
3.8500245430566998E9 0.003848023767077831 0.055129515299917387 0.9961519762329222 -0.0551295152999174 0.9961519762329222 -0.0551295152999174 0.003848023767077831 0.055129515299917387
3.908126817777384E9 0.003947339564996604 0.05595274903679651 0.9960526604350034 -0.05595274903679651 0.9960526604350034 -0.05595274903679651 0.003947339564996604 0.05595274903679651
3.9671059373830695E9 0.004049597267718076 0.05678817342281427 0.9959504027322821 -0.05678817342281427 0.9959504027322821 -0.05678817342281427 0.004049597267718076 0.05678817342281427
4.0269751346939225E9 0.004154886123204531 0.0576359611349728 0.9958451138767954 -0.057635961134972796 0.9958451138767954 -0.057635961134972796 0.004154886123204531 0.0576359611349728
4.0877478422319307E9 0.004263298021285223 0.05849628690472842 0.9957367019787147 -0.05849628690472842 0.9957367019787147 -0.05849628690472842 0.004263298021285223 0.05849628690472842
4.1494376952347054E9 0.0043749275684876405 0.05936932752530485 0.9956250724315122 -0.05936932752530484 0.9956250724315122 -0.05936932752530484 0.0043749275684876405 0.05936932752530485
4.212058534714722E9 0.004489872164908527 0.0602552618580933 0.9955101278350915 -0.0602552618580933 0.9955101278350915 -0.0602552618580933 0.004489872164908527 0.0602552618580933
4.2756244105647745E9 0.004608232083171164 0.061154270838079616 0.9953917679168289 -0.0611542708380796 0.9953917679168289 -0.0611542708380796 0.004608232083171164 0.061154270838079616
4.34014958471025E9 0.004730110549515255 0.062066537478231994 0.9952698894504848 -0.06206653747823199 0.9952698894504848 -0.06206653747823199 0.004730110549515255 0.062066537478231994
4.405648534309019E9 0.004855613827066518 0.06299224687278461 0.9951443861729334 -0.06299224687278461 0.9951443861729334 -0.06299224687278461 0.004855613827066518 0.06299224687278461
4.472135954999579E9 0.004984851301332708 0.0639315861993451 0.9950151486986673 -0.06393158619934508 0.9950151486986673 -0.06393158619934508 0.004984851301332708 0.0639315861993451
4.539626764198246E9 0.005117935567973425 0.06488474471975382 0.9948820644320265 -0.06488474471975382 0.9948820644320265 -0.06488474471975382 0.005117935567973425 0.06488474471975382
4.608136104446089E9 0.005254982522890831 0.06585191377961855 0.9947450174771092 -0.06585191377961855 0.9947450174771092 -0.06585191377961855 0.005254982522890831 0.06585191377961855
4.677679346806369E9 0.005396111454688511 0.06683328680644411 0.9946038885453117 -0.06683328680644413 0.9946038885453117 -0.06683328680644413 0.005396111454688511 0.06683328680644411
4.74827209431328E9 0.005541445139545839 0.06782905930627521 0.9944585548604541 -0.06782905930627521 0.9944585548604541 -0.06782905930627521 0.005541445139545839 0.06782905930627521
4.819930185472693E9 0.0056911099385548135 0.06883942885876455 0.9943088900614453 -0.06883942885876455 0.9943088900614453 -0.06883942885876455 0.0056911099385548135 0.06883942885876455
4.892669697815779E9 0.005845235897566434 0.06986459511057683 0.9941547641024338 -0.06986459511057683 0.9941547641024338 -0.06986459511057683 0.005845235897566434 0.06986459511057683
4.966506951506205E9 0.006003956849593204 0.07090475976703368 0.9939960431504067 -0.07090475976703368 0.9939960431504067 -0.07090475976703368 0.006003956849593204 0.07090475976703368
5.041458513001835E9 0.006167410519814296 0.07196012658190282 0.9938325894801859 -0.07196012658190282 0.9938325894801859 -0.07196012658190282 0.006167410519814296 0.07196012658190282
5.117541198771623E9 0.006335738633228952 0.07303090134522681 0.9936642613667712 -0.07303090134522681 0.9936642613667712 -0.07303090134522681 0.006335738633228952 0.07303090134522681
5.194772079068655E9 0.00650908702500393 0.07411729186908828 0.9934909129749959 -0.07411729186908828 0.9934909129749959 -0.07411729186908828 0.00650908702500393 0.07411729186908828
5.273168481760088E9 0.0066876057535591475 0.07521950797119706 0.9933123942464408 -0.07521950797119706 0.9933123942464408 -0.07521950797119706 0.0066876057535591475 0.07521950797119706
5.35274799621493E9 0.0068714492164360114 0.0763377614561874 0.9931285507835641 -0.0763377614561874 0.9931285507835641 -0.0763377614561874 0.0068714492164360114 0.0763377614561874
5.433528477250444E9 0.007060776268990859 0.07747226609450207 0.9929392237310091 -0.07747226609450207 0.9929392237310091 -0.07747226609450207 0.007060776268990859 0.07747226609450207
5.5155280491381645E9 0.007255750345955915 0.0786232375987408 0.9927442496540441 -0.0786232375987408 0.9927442496540441 -0.0786232375987408 0.007255750345955915 0.0786232375987408
5.598765109670308E9 0.0074565395859080685 0.07979089359734101 0.992543460414092 -0.07979089359734103 0.992543460414092 -0.07979089359734103 0.0074565395859080685 0.07979089359734101
5.683258334287619E9 0.007663316958685153 0.08097545360545731 0.992336683041315 -0.08097545360545731 0.992336683041315 -0.08097545360545731 0.007663316958685153 0.08097545360545731
5.769026680269438E9 0.007876260395787177 0.0821771389928977 0.992123739604213 -0.0821771389928977 0.992123739604213 -0.0821771389928977 0.007876260395787177 0.0821771389928977
5.856089390987081E9 0.00809555292379882 0.0833961729489717 0.9919044470762013 -0.08339617294897168 0.9919044470762013 -0.08339617294897168 0.00809555292379882 0.0833961729489717
5.944466000221332E9 0.008321382800866892 0.08463278044409679 0.9916786171991332 -0.08463278044409679 0.9916786171991332 -0.08463278044409679 0.008321382800866892 0.08463278044409679
6.034176336545165E9 0.008553943656265064 0.08588718818800747 0.991446056343735 -0.08588718818800747 0.991446056343735 -0.08588718818800747 0.008553943656265064 0.08588718818800747
6.125240527772534E9 0.008793434633074873 0.08715962458440071 0.9912065653669252 -0.08715962458440071 0.9912065653669252 -0.08715962458440071 0.008793434633074873 0.08715962458440071
6.217679005474381E9 0.009040060534010304 0.08845031968185012 0.9909599394659897 -0.08845031968185013 0.9909599394659897 -0.08845031968185013 0.009040060534010304 0.08845031968185012
6.311512509562712E9 0.00929403197040929 0.08975950512080959 0.9907059680295908 -0.08975950512080959 0.9907059680295908 -0.08975950512080959 0.00929403197040929 0.08975950512080959
6.406762092943938E9 0.009555565514413403 0.09108741407652596 0.9904444344855866 -0.09108741407652594 0.9904444344855866 -0.09108741407652594 0.009555565514413403 0.09108741407652596
6.503449126242364E9 0.009824883854352278 0.09243428119766799 0.9901751161456477 -0.09243428119766799 0.9901751161456477 -0.09243428119766799 0.009824883854352278 0.09243428119766799
6.601595302595024E9 0.010102215953346675 0.09380034254047699 0.9898977840466534 -0.09380034254047699 0.9898977840466534 -0.09380034254047699 0.010102215953346675 0.09380034254047699
6.701222642518842E9 0.010387797211138933 0.09518583549823313 0.9896122027888612 -0.09518583549823315 0.9896122027888612 -0.09518583549823315 0.010387797211138933 0.09518583549823313
6.802353498851242E9 0.010681869629155655 0.09659099872582716 0.9893181303708443 -0.09659099872582716 0.9893181303708443 -0.09659099872582716 0.010681869629155655 0.09659099872582716
6.905010561765357E9 0.010984681978802261 0.09801607205921758 0.9890153180211978 -0.0980160720592176 0.9890153180211978 -0.0980160720592176 0.010984681978802261 0.09801607205921758
7.009216863860868E9 0.011296489972983803 0.09946129642954725 0.9887035100270162 -0.09946129642954725 0.9887035100270162 -0.09946129642954725 0.011296489972983803 0.09946129642954725
7.114995785331733E9 0.011617556440840835 0.10092691377168489 0.9883824435591592 -0.10092691377168489 0.9883824435591592 -0.10092691377168489 0.011617556440840835 0.10092691377168489
7.222371059211838E9 0.011948151505682417 0.10241316692694788 0.9880518484943175 -0.10241316692694787 0.9880518484943175 -0.10241316692694787 0.011948151505682417 0.10241316692694788
7.331366776699882E9 0.012288552766092585 0.10392029953975769 0.9877114472339074 -0.10392029953975766 0.9877114472339074 -0.10392029953975766 0.012288552766092585 0.10392029953975769
7.442007392564552E9 0.012639045480178208 0.1054485559479664 0.9873609545198219 -0.10544855594796637 0.9873609545198219 -0.10544855594796637 0.012639045480178208 0.1054485559479664
7.554317730631347E9 0.01299992275291972 0.10699818106658955 0.9870000772470802 -0.10699818106658955 0.9870000772470802 -0.10699818106658955 0.01299992275291972 0.10699818106658955
7.668322989352107E9 0.01337148572657682 0.10856942026466737 0.9866285142734232 -0.10856942026466737 0.9866285142734232 -0.10856942026466737 0.01337148572657682 0.10856942026466737
7.784048747458713E9 0.01375404377409321 0.11016251923497092 0.9862459562259068 -0.11016251923497092 0.9862459562259068 -0.11016251923497092 0.01375404377409321 0.11016251923497092
7.901520969701988E9 0.01414791469543428 0.11177772385625917 0.9858520853045658 -0.11177772385625917 0.9858520853045658 -0.11177772385625917 0.01414791469543428 0.11177772385625917
8.020766012677318E9 0.014553424916782179 0.1134152800477859 0.9854465750832179 -0.11341528004778587 0.9854465750832179 -0.11341528004778587 0.014553424916782179 0.1134152800477859
8.141810630738087E9 0.014970909692501203 0.11507543361574404 0.9850290903074987 -0.11507543361574404 0.9850290903074987 -0.11507543361574404 0.014970909692501203 0.11507543361574404
8.264681981998447E9 0.015400713309775497 0.11675843009132938 0.9845992866902246 -0.11675843009132938 0.9845992866902246 -0.11675843009132938 0.015400713309775497 0.11675843009132938
8.389407634426599E9 0.01584318929580815 0.11846451456009223 0.9841568107041919 -0.11846451456009223 0.9841568107041919 -0.11846451456009223 0.01584318929580815 0.11846451456009223
8.516015572030096E9 0.016298700627458567 0.12019393148224297 0.9837012993725414 -0.12019393148224297 0.9837012993725414 -0.12019393148224297 0.016298700627458567 0.12019393148224297
8.644534201134432E9 0.016767619943179896 0.12194692450356097 0.9832323800568202 -0.12194692450356097 0.9832323800568202 -0.12194692450356097 0.016767619943179896 0.12194692450356097
8.774992356756447E9 0.01725032975710484 0.12372373625655513 0.9827496702428952 -0.12372373625655513 0.9827496702428952 -0.12372373625655513 0.01725032975710484 0.12372373625655513
8.907419309073835E9 0.017747222675111265 0.12552460815150884 0.9822527773248887 -0.12552460815150887 0.9822527773248887 -0.12552460815150887 0.017747222675111265 0.12552460815150884
9.041844769992386E9 0.018258701612683805 0.1273497801570402 0.981741298387316 -0.1273497801570402 0.981741298387316 -0.1273497801570402 0.018258701612683805 0.1273497801570402
9.178298899812233E9 0.018785180014368387 0.1291994905697926 0.9812148199856315 -0.1291994905697926 0.9812148199856315 -0.1291994905697926 0.018785180014368387 0.1291994905697926
9.316812313994795E9 0.019327082074599943 0.13107397577287072 0.9806729179254001 -0.1310739757728707 0.9806729179254001 -0.1310739757728707 0.019327082074599943 0.13107397577287072
9.457416090031757E9 0.019884842959662162 0.1329734699826211 0.9801151570403379 -0.1329734699826211 0.9801151570403379 -0.1329734699826211 0.019884842959662162 0.1329734699826211
9.600141774417799E9 0.02045890903051911 0.13489820498335695 0.9795410909694809 -0.13489820498335695 0.9795410909694809 -0.13489820498335695 0.02045890903051911 0.13489820498335695
9.74502138972848E9 0.021049738066235096 0.13684840984961152 0.9789502619337649 -0.13684840984961152 0.9789502619337649 -0.13684840984961152 0.021049738066235096 0.13684840984961152
9.892087441804964E9 0.02165779948767737 0.13882431065550452 0.9783422005123227 -0.13882431065550452 0.9783422005123227 -0.13882431065550452 0.02165779948767737 0.13882431065550452
1.0041372927047213E10 0.022283574581171774 0.14082613017079634 0.9777164254188283 -0.14082613017079634 0.9777164254188283 -0.14082613017079634 0.022283574581171774 0.14082613017079634
1.019291133981715E10 0.022927556721755234 0.1428540875431987 0.9770724432782447 -0.1428540875431987 0.9770724432782447 -0.1428540875431987 0.022927556721755234 0.1428540875431987
1.0346736679953665E10 0.02359025159564403 0.14490839796650964 0.9764097484043561 -0.14490839796650967 0.9764097484043561 -0.14490839796650967 0.02359025159564403 0.14490839796650964
1.050288346040092E10 0.024272177421506325 0.1469892723341291 0.9757278225784937 -0.14698927233412906 0.9757278225784937 -0.14698927233412906 0.024272177421506325 0.1469892723341291
1.0661386714951878E10 0.024973865170100747 0.14909691687751656 0.9750261348298991 -0.14909691687751656 0.9750261348298991 -0.14909691687751656 0.024973865170100747 0.14909691687751656
1.082228200610858E10 0.025695858781809786 0.1512315327891427 0.9743041412181901 -0.15123153278914267 0.9743041412181901 -0.15123153278914267 0.025695858781809786 0.1512315327891427
1.0985605433061178E10 0.026438715381566356 0.15339331582948937 0.9735612846184335 -0.15339331582948937 0.9735612846184335 -0.15339331582948937 0.026438715381566356 0.15339331582948937
1.115139363978725E10 0.02720300549063727 0.15558245591765055 0.9727969945093629 -0.15558245591765055 0.9727969945093629 -0.15558245591765055 0.02720300549063727 0.15558245591765055
1.1319683823273457E10 0.02798931323469275 0.1577991367050871 0.9720106867653072 -0.1577991367050871 0.9720106867653072 -0.1577991367050871 0.02798931323469275 0.1577991367050871
1.1490513741861174E10 0.028798236547554916 0.16004353513209252 0.9712017634524454 -0.16004353513209255 0.9712017634524454 -0.16004353513209255 0.028798236547554916 0.16004353513209252
1.1663921723718182E10 0.02963038736998005 0.16231582096652827 0.9703696126300199 -0.16231582096652827 0.9703696126300199 -0.16231582096652827 0.02963038736998005 0.16231582096652827
1.1839946675438086E10 0.03048639184278945 0.1646161563243926 0.9695136081572104 -0.1646161563243926 0.9695136081572104 -0.1646161563243926 0.03048639184278945 0.1646161563243926
1.201862809076963E10 0.03136689049362431 0.16694469517179622 0.9686331095063756 -0.1669446951717962 0.9686331095063756 -0.1669446951717962 0.03136689049362431 0.16694469517179622
1.2200006059477636E10 0.03227253841655587 0.16930158280792335 0.967727461583444 -0.16930158280792335 0.967727461583444 -0.16930158280792335 0.03227253841655587 0.16930158280792335
1.2384121276337788E10 0.033204005443740116 0.171686955328572 0.9667959945562599 -0.171686955328572 0.9667959945562599 -0.171686955328572 0.033204005443740116 0.171686955328572
1.2571015050267014E10 0.03416197630825866 0.17410093906987364 0.9658380236917413 -0.17410093906987364 0.9658380236917413 -0.17410093906987364 0.03416197630825866 0.17410093906987364
1.2760729313591831E10 0.03514715079724428 0.17654365003181832 0.964852849202756 -0.17654365003181835 0.964852849202756 -0.17654365003181835 0.03514715079724428 0.17654365003181832
1.2953306631456385E10 0.036160243894336974 0.1790151932812163 0.9638397561056631 -0.17901519328121632 0.9638397561056631 -0.17901519328121632 0.036160243894336974 0.1790151932812163
1.3148790211372633E10 0.03720198591047172 0.18151566233376093 0.9627980140895285 -0.18151566233376093 0.9627980140895285 -0.18151566233376093 0.03720198591047172 0.18151566233376093
1.3347223912914501E10 0.03827312260194419 0.18404513851486953 0.9617268773980556 -0.18404513851486953 0.9617268773980556 -0.18404513851486953 0.03827312260194419 0.18404513851486953
1.354865225755849E10 0.03937441527465253 0.1866036902990165 0.9606255847253474 -0.1866036902990165 0.9606255847253474 -0.1866036902990165 0.03937441527465253 0.1866036902990165
1.3753120438672642E10 0.04050664087335717 0.18919137262729277 0.9594933591266428 -0.1891913726272928 0.9594933591266428 -0.1891913726272928 0.04050664087335717 0.18919137262729277
1.3960674331656387E10 0.041670592054749024 0.19180822620296809 0.9583294079452511 -0.1918082262029681 0.9583294079452511 -0.1918082262029681 0.041670592054749024 0.19180822620296809
1.4171360504233326E10 0.042867077243060214 0.19445427676486343 0.9571329227569397 -0.19445427676486343 0.9571329227569397 -0.19445427676486343 0.042867077243060214 0.19445427676486343
1.438522622689936E10 0.04409692066689643 0.19712953433838667 0.9559030793331035 -0.19712953433838667 0.9559030793331035 -0.19712953433838667 0.04409692066689643 0.19712953433838667
1.4602319483528553E10 0.045360962375913666 0.19983399246412695 0.9546390376240865 -0.19983399246412695 0.9546390376240865 -0.19983399246412695 0.045360962375913666 0.19983399246412695
1.482268898213895E10 0.0466600582359053 0.20256762740395443 0.9533399417640946 -0.20256762740395443 0.9533399417640946 -0.20256762740395443 0.0466600582359053 0.20256762740395443
1.5046384165821007E10 0.047995079900809444 0.2053303973246284 0.9520049200991904 -0.2053303973246284 0.9520049200991904 -0.2053303973246284 0.047995079900809444 0.2053303973246284
1.527345522383077E10 0.049366914760088046 0.20812224145897115 0.9506330852399119 -0.20812224145897112 0.9506330852399119 -0.20812224145897112 0.049366914760088046 0.20812224145897115
1.5503953102850658E10 0.050776465859874845 0.21094307924473585 0.9492235341401251 -0.2109430792447358 0.9492235341401251 -0.2109430792447358 0.050776465859874845 0.21094307924473585
1.573792951842E10 0.05222465179623085 0.213792809441361 0.9477753482037692 -0.213792809441361 0.9477753482037692 -0.213792809441361 0.05222465179623085 0.213792809441361
1.5975436966538242E10 0.0537124065787934 0.21667130922488434 0.9462875934212067 -0.21667130922488434 0.9462875934212067 -0.21667130922488434 0.0537124065787934 0.21667130922488434
1.6216528735443121E10 0.05524067946304795 0.2195784332613655 0.9447593205369521 -0.2195784332613655 0.9447593205369521 -0.2195784332613655 0.05524067946304795 0.2195784332613655
1.646125891756672E10 0.056810434749401645 0.22251401275925786 0.9431895652505983 -0.22251401275925786 0.9431895652505983 -0.22251401275925786 0.056810434749401645 0.22251401275925786
1.6709682421671806E10 0.05842265154718483 0.22547785450126087 0.9415773484528152 -0.22547785450126087 0.9415773484528152 -0.22547785450126087 0.05842265154718483 0.22547785450126087
1.6961854985171501E10 0.060078323501661396 0.22846973985628705 0.9399216764983387 -0.228469739856287 0.9399216764983387 -0.228469739856287 0.060078323501661396 0.22846973985628705
1.7217833186634693E10 0.061778458482078406 0.23148942377227905 0.9382215415179217 -0.23148942377227905 0.9382215415179217 -0.23148942377227905 0.061778458482078406 0.23148942377227905
1.7477674458480328E10 0.06352407822874884 0.23453663375073264 0.9364759217712513 -0.2345366337507327 0.9364759217712513 -0.2345366337507327 0.06352407822874884 0.23453663375073264
1.7741437099863132E10 0.06531621795711744 0.23761106880389327 0.9346837820428826 -0.23761106880389327 0.9346837820428826 -0.23761106880389327 0.06531621795711744 0.23761106880389327
1.8009180289753963E10 0.0671559259167296 0.24071239839572905 0.9328440740832703 -0.2407123983957291 0.9328440740832703 -0.2407123983957291 0.0671559259167296 0.24071239839572905
1.8280964100217365E10 0.06904426290299027 0.24384026136791004 0.9309557370970097 -0.24384026136791004 0.9309557370970097 -0.24384026136791004 0.06904426290299027 0.24384026136791004
1.8556849509889713E10 0.07098230171957973 0.24699426485217035 0.9290176982804201 -0.24699426485217035 0.9290176982804201 -0.24699426485217035 0.07098230171957973 0.24699426485217035
1.8836898417660553E10 0.07297112658937145 0.2501739831705746 0.9270288734106285 -0.2501739831705746 0.9270288734106285 -0.2501739831705746 0.07297112658937145 0.2501739831705746
1.912117365656061E10 0.07501183251169166 0.2533789567253685 0.9249881674883083 -0.2533789567253685 0.9249881674883083 -0.2533789567253685 0.07501183251169166 0.2533789567253685
1.94097390078592E10 0.07710552456375082 0.25660869088025146 0.9228944754362493 -0.25660869088025146 0.9228944754362493 -0.25660869088025146 0.07710552456375082 0.25660869088025146
1.9702659215374565E10 0.07925331714409 0.25986265483508675 0.9207466828559101 -0.25986265483508675 0.9207466828559101 -0.25986265483508675 0.07925331714409 0.25986265483508675
2.0E10 0.08145633315589276 0.26314028049623067 0.9185436668441072 -0.26314028049623067 0.9185436668441072 -0.26314028049623067 0.08145633315589276 0.26314028049623067
